SYSTEM = Post_perovskite

############# General flags ##############
PREC = High
ENCUT = 500.0
ISMEAR = -5
ISYM=0
NELMIN = 5

################ Other Flags ##############
LCHARG = F
LWAVE = F
NWRITE = 2


################ Elastic ##################
IBRION=2
ISIF = 2
NSW=300
EDIFF = 1E-8
EDIFFG = -1E-4
POTIM=0.010
KSPACING = 0.2
PSTRESS = 1200
