Mg Si O                                 
   1.00000000000000     
     2.4743832513532706   -0.0000000001775271    0.0000000000167430
    -0.0000000005715761    8.1084929115635287   -0.0000002542119438
     0.0000000000520542   -0.0000001926134023    6.1411455244953732
   Mg   Si   O 
     4     4    12
Direct
  0.4999999999926666  0.7531027065812220  0.2500000191623827
  0.4999999999967412  0.2468972935084151  0.7499999811705254
 -0.0000000000091933  0.2531027066001239  0.2500000188935132
  0.0000000000129633  0.7468972935067673  0.7499999808481607
  0.0000000000052724  0.0000000003248878 -0.0000000000610167
 -0.0000000000288972 -0.0000000001002817  0.4999999998415763
  0.5000000000182272  0.4999999993643144  0.0000000007097393
  0.5000000000062089  0.4999999999158415  0.4999999997426460
 -0.0000000000425898  0.9267005915001959  0.2499999906589621
 -0.0000000000041928  0.0732994083739048  0.7500000096113265
  0.5000000000513973  0.1359535031771135  0.4408357696037142
  0.4999999999269824  0.8640464969513548  0.5591642301811115
  0.4999999999379708  0.8640465113991532  0.9408356143995334
  0.5000000000289769  0.1359534884869154  0.0591643855969579
  0.5000000000229494  0.4267005915888991  0.2499999897985561
  0.5000000000295911  0.5732994086981492  0.7500000095308446
  0.0000000000726721  0.6359535029412656  0.4408357700431881
 -0.0000000000761565  0.3640464968426668  0.5591642306474904
  0.0000000000068576  0.3640465117471682  0.9408356142680439
  0.0000000000515520  0.6359534885919230  0.0591643853527448
 
  0.00000000E+00  0.00000000E+00  0.00000000E+00
  0.00000000E+00  0.00000000E+00  0.00000000E+00
  0.00000000E+00  0.00000000E+00  0.00000000E+00
  0.00000000E+00  0.00000000E+00  0.00000000E+00
  0.00000000E+00  0.00000000E+00  0.00000000E+00
  0.00000000E+00  0.00000000E+00  0.00000000E+00
  0.00000000E+00  0.00000000E+00  0.00000000E+00
  0.00000000E+00  0.00000000E+00  0.00000000E+00
  0.00000000E+00  0.00000000E+00  0.00000000E+00
  0.00000000E+00  0.00000000E+00  0.00000000E+00
  0.00000000E+00  0.00000000E+00  0.00000000E+00
  0.00000000E+00  0.00000000E+00  0.00000000E+00
  0.00000000E+00  0.00000000E+00  0.00000000E+00
  0.00000000E+00  0.00000000E+00  0.00000000E+00
  0.00000000E+00  0.00000000E+00  0.00000000E+00
  0.00000000E+00  0.00000000E+00  0.00000000E+00
  0.00000000E+00  0.00000000E+00  0.00000000E+00
  0.00000000E+00  0.00000000E+00  0.00000000E+00
  0.00000000E+00  0.00000000E+00  0.00000000E+00
  0.00000000E+00  0.00000000E+00  0.00000000E+00
