Mg Si O
   1.0
     2.4723811499996495    0.0000000000000000    0.0000000000000000
     0.0000000000000000    8.0996212623458810    0.0000000000000000
     0.0000000000000000    0.0000000000000000    6.1356913942619702
  Mg   Si O
   4   4  12
Direct
  0.5000000000000000  0.7530760109116308  0.2500000000000000
  0.5000000000000000  0.2469239890883692  0.7500000000000000
  0.0000000000000000  0.2530760109116308  0.2500000000000000
  0.0000000000000000  0.7469239890883692  0.7500000000000000
  0.0000000000000000  0.0000000000000000  0.0000000000000000
  0.0000000000000000  0.0000000000000000  0.5000000000000000
  0.5000000000000000  0.5000000000000000  0.0000000000000000
  0.5000000000000000  0.5000000000000000  0.5000000000000000
  0.0000000000000000  0.9266836968352230  0.2500000000000000
  0.0000000000000000  0.0733163031647770  0.7500000000000000
  0.5000000000000000  0.1360112983808577  0.4408192873872139
  0.5000000000000000  0.8639887016191423  0.5591807126127861
  0.5000000000000000  0.8639887016191423  0.9408192873872139
  0.5000000000000000  0.1360112983808577  0.0591807126127861
  0.5000000000000000  0.4266836968352230  0.2500000000000000
  0.5000000000000000  0.5733163031647770  0.7500000000000000
  0.0000000000000000  0.6360112983808577  0.4408192873872139
  0.0000000000000000  0.3639887016191423  0.5591807126127861
  0.0000000000000000  0.3639887016191423  0.9408192873872139
  0.0000000000000000  0.6360112983808577  0.0591807126127861
