this structure has been generated with applied strains
1.0
2.5354159793   -0.0181690610   -0.0060659372
-0.0595395645   8.2687633581   -0.0396383457
-0.0150549837   -0.0300209715   6.3226071020
  Mg    Si     O
   4     4    12
Direct
0.5000000000  0.7531027066  0.2500000192
0.5000000000  0.2468972935  0.7499999812
-0.0000000000  0.2531027066  0.2500000189
0.0000000000  0.7468972935  0.7499999808
0.0000000000  0.0000000003  -0.0000000001
-0.0000000000  -0.0000000001  0.4999999998
0.5000000000  0.4999999994  0.0000000007
0.5000000000  0.4999999999  0.4999999997
-0.0000000000  0.9267005915  0.2499999907
-0.0000000000  0.0732994084  0.7500000096
0.5000000001  0.1359535032  0.4408357696
0.4999999999  0.8640464970  0.5591642302
0.4999999999  0.8640465114  0.9408356144
0.5000000000  0.1359534885  0.0591643856
0.5000000000  0.4267005916  0.2499999898
0.5000000000  0.5732994087  0.7500000095
0.0000000001  0.6359535029  0.4408357700
-0.0000000001  0.3640464968  0.5591642306
0.0000000000  0.3640465117  0.9408356143
0.0000000001  0.6359534886  0.0591643854